NAME          
ROWS
 N  OBJ
 L  c1
COLUMNS
    MARKER    'MARKER'                 'INTORG'
    x[1]      c1        208
    x[1]      OBJ       -212
    x[2]      c1        1001
    x[2]      OBJ       -978
    x[3]      c1        249
    x[3]      OBJ       -151
    x[4]      c1        839
    x[4]      OBJ       -839
    x[5]      c1        715
    x[5]      OBJ       -669
    x[6]      c1        294
    x[6]      OBJ       -213
    x[7]      c1        -30
    x[7]      OBJ       -42
    x[8]      c1        811
    x[8]      OBJ       -851
    x[9]      c1        385
    x[9]      OBJ       -326
    x[10]     c1        793
    x[10]     OBJ       -744
    x[11]     c1        345
    x[11]     OBJ       -342
    x[12]     c1        882
    x[12]     OBJ       -918
    x[13]     c1        260
    x[13]     OBJ       -324
    x[14]     c1        673
    x[14]     OBJ       -641
    x[15]     c1        681
    x[15]     OBJ       -653
    x[16]     c1        776
    x[16]     OBJ       -864
    x[17]     c1        930
    x[17]     OBJ       -966
    x[18]     c1        634
    x[18]     OBJ       -673
    x[19]     c1        191
    x[19]     OBJ       -165
    x[20]     c1        71
    x[20]     OBJ       -68
    x[21]     c1        669
    x[21]     OBJ       -609
    x[22]     c1        495
    x[22]     OBJ       -439
    x[23]     c1        72
    x[23]     OBJ       -132
    x[24]     c1        406
    x[24]     OBJ       -447
    x[25]     c1        485
    x[25]     OBJ       -399
    x[26]     c1        359
    x[26]     OBJ       -428
    x[27]     c1        603
    x[27]     OBJ       -583
    x[28]     c1        266
    x[28]     OBJ       -178
    x[29]     c1        963
    x[29]     OBJ       -968
    x[30]     c1        179
    x[30]     OBJ       -154
    x[31]     c1        564
    x[31]     OBJ       -508
    x[32]     c1        628
    x[32]     OBJ       -587
    x[33]     c1        414
    x[33]     OBJ       -359
    x[34]     c1        640
    x[34]     OBJ       -543
    x[35]     c1        87
    x[35]     OBJ       -91
    x[36]     c1        59
    x[36]     OBJ       -45
    x[37]     c1        811
    x[37]     OBJ       -825
    x[38]     c1        254
    x[38]     OBJ       -316
    x[39]     c1        378
    x[39]     OBJ       -348
    x[40]     c1        618
    x[40]     OBJ       -527
RHS
    rhs       c1        9829
RANGES
BOUNDS
 BV bounds    x[1]
 BV bounds    x[2]
 BV bounds    x[3]
 BV bounds    x[4]
 BV bounds    x[5]
 BV bounds    x[6]
 BV bounds    x[7]
 BV bounds    x[8]
 BV bounds    x[9]
 BV bounds    x[10]
 BV bounds    x[11]
 BV bounds    x[12]
 BV bounds    x[13]
 BV bounds    x[14]
 BV bounds    x[15]
 BV bounds    x[16]
 BV bounds    x[17]
 BV bounds    x[18]
 BV bounds    x[19]
 BV bounds    x[20]
 BV bounds    x[21]
 BV bounds    x[22]
 BV bounds    x[23]
 BV bounds    x[24]
 BV bounds    x[25]
 BV bounds    x[26]
 BV bounds    x[27]
 BV bounds    x[28]
 BV bounds    x[29]
 BV bounds    x[30]
 BV bounds    x[31]
 BV bounds    x[32]
 BV bounds    x[33]
 BV bounds    x[34]
 BV bounds    x[35]
 BV bounds    x[36]
 BV bounds    x[37]
 BV bounds    x[38]
 BV bounds    x[39]
 BV bounds    x[40]
ENDATA
